Solver command line: ['C:\\Program Files\\IBM\\ILOG\\CPLEX_Studio2211\\cplex\\bin\\x64_win64\\cplex.exe']


Welcome to IBM(R) ILOG(R) CPLEX(R) Interactive Optimizer 22.1.1.0
  with Simplex, Mixed Integer & Barrier Optimizers
5725-A06 5725-A29 5724-Y48 5724-Y49 5724-Y54 5724-Y55 5655-Y21
Copyright IBM Corp. 1988, 2022.  All Rights Reserved.

Type 'help' for a list of available commands.
Type 'help' followed by a command name for more
information on commands.

CPLEX> Logfile 'cplex.log' closed.
Logfile 'C:\Users\wangy\Documents\GitHub\re_optimization\result_site_specific\tmpn9j8soef.cplex.log' open.
CPLEX> Problem 'C:\Users\wangy\Documents\GitHub\re_optimization\result_site_specific\tmpt9wdbfw9.pyomo.lp' read.
Read time = 0.28 sec. (9.13 ticks)
CPLEX> Problem name         : C:\Users\wangy\Documents\GitHub\re_optimization\result_site_specific\tmpt9wdbfw9.pyomo.lp
Objective sense      : Minimize
Variables            :   65769  [Nneg: 35068,  Free: 8792,  Binary: 9,
                                 Other: 21900]
Objective nonzeros   :      17
Linear constraints   :   87665  [Less: 46741,  Greater: 5,  Equal: 40919]
  Nonzeros           :  225077
  RHS nonzeros       :    3532

Variables            : Min LB: 0.000000         Max UB: 1.000000       
Objective nonzeros   : Min   : 1.000000         Max   : 1.000000       
Linear constraints   :
  Nonzeros           : Min   : 0.002298186      Max   : 100000.0       
  RHS nonzeros       : Min   : 0.02700000       Max   : 100000.0       
CPLEX> Version identifier: 22.1.1.0 | 2022-11-27 | 9160aff4d
Tried aggregator 3 times.
MIP Presolve eliminated 53611 rows and 33169 columns.
Aggregator did 10471 substitutions.
Reduced MIP has 23583 rows, 22129 columns, and 70607 nonzeros.
Reduced MIP has 5 binaries, 0 generals, 0 SOSs, and 0 indicators.
Presolve time = 0.20 sec. (226.26 ticks)
Found incumbent of value 295849.619512 after 0.27 sec. (312.44 ticks)
Probing time = 0.01 sec. (1.31 ticks)
Tried aggregator 1 time.
Detecting symmetries...
Reduced MIP has 23583 rows, 22129 columns, and 70607 nonzeros.
Reduced MIP has 5 binaries, 0 generals, 0 SOSs, and 0 indicators.
Presolve time = 0.03 sec. (45.65 ticks)
Probing time = 0.01 sec. (1.21 ticks)
MIP emphasis: balance optimality and feasibility.
MIP search method: dynamic search.
Parallel mode: deterministic, using up to 16 threads.
Root relaxation solution time = 1.16 sec. (851.92 ticks)

        Nodes                                         Cuts/
   Node  Left     Objective  IInf  Best Integer    Best Bound    ItCnt     Gap

*     0+    0                       295849.6195    -9980.6967           103.37%
      0     0     4411.7190     1   295849.6195     4411.7190       68   98.51%
*     0+    0                         6016.4132     4411.7190            26.67%
*     0+    0                         4955.0601     4411.7190            10.97%
      0     0        cutoff           4955.0601                    612    0.00%
Elapsed time = 1.78 sec. (1674.89 ticks, tree = 0.01 MB, solutions = 3)

Root node processing (before b&c):
  Real time             =    1.80 sec. (1678.05 ticks)
Parallel b&c, 16 threads:
  Real time             =    0.00 sec. (0.00 ticks)
  Sync time (average)   =    0.00 sec.
  Wait time (average)   =    0.00 sec.
                          ------------
Total (root+branch&cut) =    1.80 sec. (1678.05 ticks)

Solution pool: 3 solutions saved.

MIP - Integer optimal solution:  Objective =  4.9550600934e+03
Solution time =    1.80 sec.  Iterations = 612  Nodes = 0
Deterministic time = 1678.24 ticks  (933.91 ticks/sec)

CPLEX> Incumbent solution written to file 'C:\Users\wangy\Documents\GitHub\re_optimization\result_site_specific\tmpm2zvcrnc.cplex.sol'.
CPLEX> 
